c "random instance"
p edges 150 4449
e 1 8
e 1 13
e 1 18
e 1 19
e 1 21
e 1 22
e 1 23
e 1 27
e 1 28
e 1 31
e 1 34
e 1 36
e 1 37
e 1 38
e 1 41
e 1 44
e 1 46
e 1 47
e 1 48
e 1 49
e 1 52
e 1 54
e 1 57
e 1 60
e 1 61
e 1 62
e 1 65
e 1 66
e 1 68
e 1 71
e 1 73
e 1 76
e 1 77
e 1 78
e 1 81
e 1 84
e 1 87
e 1 89
e 1 91
e 1 96
e 1 98
e 1 99
e 1 101
e 1 103
e 1 104
e 1 105
e 1 108
e 1 109
e 1 114
e 1 115
e 1 117
e 1 118
e 1 119
e 1 120
e 1 123
e 1 125
e 1 128
e 1 129
e 1 134
e 1 138
e 1 140
e 1 142
e 1 149
e 2 3
e 2 5
e 2 6
e 2 8
e 2 13
e 2 14
e 2 18
e 2 20
e 2 23
e 2 24
e 2 25
e 2 26
e 2 28
e 2 31
e 2 39
e 2 41
e 2 42
e 2 43
e 2 44
e 2 48
e 2 50
e 2 52
e 2 53
e 2 54
e 2 55
e 2 58
e 2 63
e 2 64
e 2 68
e 2 69
e 2 71
e 2 73
e 2 76
e 2 78
e 2 79
e 2 83
e 2 86
e 2 87
e 2 89
e 2 92
e 2 95
e 2 97
e 2 100
e 2 101
e 2 102
e 2 103
e 2 107
e 2 110
e 2 112
e 2 113
e 2 115
e 2 118
e 2 122
e 2 130
e 2 131
e 2 133
e 2 137
e 2 138
e 2 139
e 2 144
e 2 145
e 2 146
e 2 148
e 3 4
e 3 5
e 3 12
e 3 14
e 3 17
e 3 19
e 3 21
e 3 22
e 3 28
e 3 31
e 3 32
e 3 37
e 3 38
e 3 39
e 3 43
e 3 47
e 3 51
e 3 56
e 3 58
e 3 65
e 3 70
e 3 72
e 3 75
e 3 77
e 3 78
e 3 85
e 3 92
e 3 95
e 3 96
e 3 97
e 3 101
e 3 106
e 3 109
e 3 111
e 3 113
e 3 114
e 3 115
e 3 116
e 3 118
e 3 121
e 3 131
e 3 132
e 3 134
e 3 135
e 3 136
e 3 138
e 3 141
e 3 143
e 3 144
e 3 146
e 3 148
e 3 150
e 4 9
e 4 10
e 4 11
e 4 12
e 4 16
e 4 18
e 4 19
e 4 20
e 4 24
e 4 27
e 4 29
e 4 30
e 4 31
e 4 33
e 4 34
e 4 37
e 4 39
e 4 40
e 4 44
e 4 49
e 4 50
e 4 52
e 4 54
e 4 56
e 4 58
e 4 59
e 4 61
e 4 62
e 4 67
e 4 68
e 4 69
e 4 71
e 4 72
e 4 75
e 4 76
e 4 77
e 4 79
e 4 80
e 4 82
e 4 83
e 4 84
e 4 85
e 4 87
e 4 93
e 4 95
e 4 98
e 4 101
e 4 102
e 4 105
e 4 107
e 4 109
e 4 110
e 4 114
e 4 119
e 4 120
e 4 121
e 4 124
e 4 133
e 4 134
e 4 137
e 4 138
e 4 139
e 4 141
e 4 145
e 4 146
e 4 148
e 4 149
e 5 7
e 5 10
e 5 11
e 5 13
e 5 14
e 5 15
e 5 17
e 5 20
e 5 21
e 5 23
e 5 24
e 5 30
e 5 31
e 5 32
e 5 34
e 5 35
e 5 38
e 5 40
e 5 50
e 5 51
e 5 52
e 5 55
e 5 56
e 5 58
e 5 63
e 5 65
e 5 66
e 5 69
e 5 75
e 5 87
e 5 90
e 5 91
e 5 95
e 5 96
e 5 99
e 5 100
e 5 101
e 5 104
e 5 107
e 5 110
e 5 112
e 5 113
e 5 115
e 5 116
e 5 117
e 5 119
e 5 120
e 5 123
e 5 127
e 5 128
e 5 129
e 5 131
e 5 132
e 5 135
e 5 136
e 5 137
e 5 140
e 5 141
e 5 142
e 5 144
e 5 145
e 5 146
e 5 150
e 6 7
e 6 9
e 6 11
e 6 13
e 6 18
e 6 24
e 6 27
e 6 28
e 6 29
e 6 31
e 6 33
e 6 34
e 6 37
e 6 38
e 6 43
e 6 45
e 6 46
e 6 47
e 6 50
e 6 51
e 6 52
e 6 55
e 6 58
e 6 59
e 6 61
e 6 62
e 6 64
e 6 65
e 6 69
e 6 71
e 6 72
e 6 73
e 6 76
e 6 77
e 6 80
e 6 81
e 6 85
e 6 86
e 6 88
e 6 98
e 6 99
e 6 101
e 6 102
e 6 104
e 6 113
e 6 115
e 6 117
e 6 118
e 6 121
e 6 127
e 6 128
e 6 129
e 6 130
e 6 135
e 6 140
e 6 141
e 6 142
e 6 147
e 6 149
e 6 150
e 7 11
e 7 15
e 7 22
e 7 32
e 7 33
e 7 38
e 7 40
e 7 43
e 7 44
e 7 45
e 7 47
e 7 49
e 7 53
e 7 54
e 7 55
e 7 56
e 7 57
e 7 61
e 7 64
e 7 68
e 7 70
e 7 73
e 7 74
e 7 79
e 7 82
e 7 89
e 7 91
e 7 92
e 7 94
e 7 99
e 7 103
e 7 104
e 7 106
e 7 107
e 7 108
e 7 113
e 7 116
e 7 117
e 7 119
e 7 126
e 7 128
e 7 130
e 7 131
e 7 132
e 7 136
e 7 137
e 7 138
e 7 143
e 7 145
e 8 12
e 8 13
e 8 16
e 8 17
e 8 18
e 8 19
e 8 20
e 8 22
e 8 23
e 8 26
e 8 29
e 8 34
e 8 35
e 8 37
e 8 40
e 8 47
e 8 49
e 8 50
e 8 51
e 8 52
e 8 55
e 8 66
e 8 67
e 8 68
e 8 69
e 8 70
e 8 74
e 8 76
e 8 77
e 8 78
e 8 80
e 8 83
e 8 91
e 8 92
e 8 99
e 8 100
e 8 101
e 8 104
e 8 107
e 8 108
e 8 112
e 8 116
e 8 117
e 8 124
e 8 126
e 8 128
e 8 130
e 8 132
e 8 135
e 8 137
e 8 138
e 8 141
e 8 143
e 8 146
e 8 149
e 8 150
e 9 10
e 9 14
e 9 17
e 9 18
e 9 19
e 9 23
e 9 24
e 9 27
e 9 30
e 9 31
e 9 38
e 9 41
e 9 46
e 9 47
e 9 50
e 9 56
e 9 57
e 9 58
e 9 59
e 9 61
e 9 63
e 9 64
e 9 70
e 9 71
e 9 72
e 9 75
e 9 78
e 9 80
e 9 81
e 9 83
e 9 89
e 9 90
e 9 97
e 9 98
e 9 100
e 9 101
e 9 103
e 9 106
e 9 109
e 9 112
e 9 114
e 9 120
e 9 122
e 9 124
e 9 125
e 9 126
e 9 127
e 9 133
e 9 136
e 9 137
e 9 138
e 9 139
e 9 140
e 9 146
e 9 147
e 9 149
e 9 150
e 10 12
e 10 14
e 10 15
e 10 17
e 10 21
e 10 23
e 10 24
e 10 25
e 10 27
e 10 30
e 10 32
e 10 33
e 10 35
e 10 38
e 10 41
e 10 43
e 10 46
e 10 53
e 10 60
e 10 62
e 10 63
e 10 64
e 10 66
e 10 75
e 10 76
e 10 83
e 10 84
e 10 93
e 10 95
e 10 103
e 10 104
e 10 108
e 10 110
e 10 113
e 10 114
e 10 115
e 10 116
e 10 117
e 10 122
e 10 123
e 10 125
e 10 131
e 10 135
e 10 137
e 10 142
e 10 143
e 10 144
e 10 147
e 10 149
e 11 12
e 11 13
e 11 14
e 11 15
e 11 19
e 11 22
e 11 23
e 11 28
e 11 29
e 11 32
e 11 33
e 11 36
e 11 37
e 11 42
e 11 43
e 11 47
e 11 48
e 11 50
e 11 52
e 11 55
e 11 58
e 11 60
e 11 62
e 11 63
e 11 64
e 11 69
e 11 72
e 11 74
e 11 75
e 11 81
e 11 88
e 11 96
e 11 97
e 11 101
e 11 102
e 11 103
e 11 104
e 11 108
e 11 111
e 11 113
e 11 115
e 11 116
e 11 118
e 11 120
e 11 126
e 11 131
e 11 136
e 11 139
e 11 143
e 11 146
e 11 149
e 11 150
e 12 14
e 12 17
e 12 21
e 12 22
e 12 23
e 12 24
e 12 25
e 12 27
e 12 28
e 12 29
e 12 32
e 12 33
e 12 35
e 12 38
e 12 40
e 12 42
e 12 45
e 12 46
e 12 47
e 12 51
e 12 53
e 12 54
e 12 58
e 12 60
e 12 63
e 12 70
e 12 71
e 12 74
e 12 75
e 12 81
e 12 83
e 12 84
e 12 87
e 12 91
e 12 94
e 12 95
e 12 98
e 12 99
e 12 102
e 12 107
e 12 108
e 12 110
e 12 111
e 12 112
e 12 118
e 12 119
e 12 120
e 12 121
e 12 125
e 12 126
e 12 128
e 12 131
e 12 135
e 12 138
e 12 139
e 12 143
e 12 144
e 12 146
e 12 148
e 12 150
e 13 17
e 13 23
e 13 26
e 13 27
e 13 30
e 13 31
e 13 33
e 13 34
e 13 36
e 13 37
e 13 40
e 13 42
e 13 43
e 13 46
e 13 48
e 13 49
e 13 57
e 13 58
e 13 59
e 13 60
e 13 64
e 13 65
e 13 69
e 13 70
e 13 74
e 13 76
e 13 81
e 13 96
e 13 98
e 13 99
e 13 101
e 13 103
e 13 106
e 13 110
e 13 116
e 13 118
e 13 125
e 13 127
e 13 129
e 13 134
e 13 144
e 13 146
e 13 147
e 13 148
e 13 150
e 14 18
e 14 20
e 14 23
e 14 25
e 14 26
e 14 27
e 14 28
e 14 31
e 14 34
e 14 38
e 14 39
e 14 40
e 14 42
e 14 45
e 14 47
e 14 50
e 14 57
e 14 64
e 14 72
e 14 74
e 14 76
e 14 78
e 14 79
e 14 80
e 14 87
e 14 92
e 14 93
e 14 97
e 14 98
e 14 99
e 14 100
e 14 103
e 14 106
e 14 110
e 14 111
e 14 112
e 14 113
e 14 122
e 14 130
e 14 131
e 14 132
e 14 133
e 14 135
e 14 136
e 14 138
e 14 142
e 14 145
e 14 150
e 15 17
e 15 22
e 15 26
e 15 30
e 15 31
e 15 33
e 15 44
e 15 47
e 15 50
e 15 53
e 15 54
e 15 56
e 15 73
e 15 75
e 15 76
e 15 78
e 15 80
e 15 82
e 15 85
e 15 88
e 15 90
e 15 92
e 15 95
e 15 98
e 15 100
e 15 101
e 15 103
e 15 104
e 15 105
e 15 106
e 15 108
e 15 109
e 15 117
e 15 120
e 15 121
e 15 123
e 15 124
e 15 125
e 15 126
e 15 127
e 15 134
e 15 135
e 15 136
e 15 138
e 15 139
e 15 142
e 15 146
e 15 147
e 15 148
e 15 149
e 15 150
e 16 17
e 16 22
e 16 23
e 16 26
e 16 29
e 16 30
e 16 35
e 16 36
e 16 40
e 16 41
e 16 43
e 16 44
e 16 48
e 16 49
e 16 51
e 16 53
e 16 55
e 16 57
e 16 59
e 16 64
e 16 65
e 16 73
e 16 76
e 16 77
e 16 79
e 16 80
e 16 83
e 16 85
e 16 88
e 16 89
e 16 92
e 16 93
e 16 94
e 16 97
e 16 99
e 16 107
e 16 110
e 16 111
e 16 114
e 16 120
e 16 121
e 16 122
e 16 123
e 16 127
e 16 132
e 16 135
e 16 137
e 16 141
e 16 144
e 16 145
e 16 147
e 16 148
e 16 149
e 17 21
e 17 25
e 17 26
e 17 27
e 17 30
e 17 31
e 17 32
e 17 33
e 17 36
e 17 39
e 17 40
e 17 41
e 17 42
e 17 44
e 17 46
e 17 51
e 17 52
e 17 53
e 17 54
e 17 55
e 17 57
e 17 58
e 17 64
e 17 68
e 17 72
e 17 76
e 17 80
e 17 82
e 17 83
e 17 90
e 17 92
e 17 94
e 17 106
e 17 111
e 17 113
e 17 119
e 17 121
e 17 122
e 17 123
e 17 124
e 17 125
e 17 128
e 17 133
e 17 136
e 17 140
e 17 142
e 17 144
e 17 147
e 17 148
e 18 21
e 18 23
e 18 24
e 18 27
e 18 31
e 18 34
e 18 37
e 18 39
e 18 40
e 18 41
e 18 42
e 18 45
e 18 48
e 18 51
e 18 53
e 18 60
e 18 64
e 18 67
e 18 68
e 18 69
e 18 70
e 18 71
e 18 74
e 18 76
e 18 78
e 18 81
e 18 84
e 18 85
e 18 90
e 18 93
e 18 100
e 18 101
e 18 103
e 18 106
e 18 111
e 18 112
e 18 115
e 18 116
e 18 118
e 18 119
e 18 120
e 18 122
e 18 123
e 18 125
e 18 127
e 18 128
e 18 130
e 18 133
e 18 135
e 18 137
e 18 142
e 18 147
e 18 149
e 18 150
e 19 20
e 19 21
e 19 22
e 19 27
e 19 32
e 19 34
e 19 35
e 19 37
e 19 41
e 19 43
e 19 48
e 19 49
e 19 51
e 19 52
e 19 53
e 19 55
e 19 56
e 19 57
e 19 62
e 19 63
e 19 65
e 19 67
e 19 68
e 19 70
e 19 73
e 19 74
e 19 75
e 19 76
e 19 77
e 19 80
e 19 82
e 19 86
e 19 88
e 19 92
e 19 96
e 19 100
e 19 107
e 19 109
e 19 112
e 19 115
e 19 123
e 19 125
e 19 127
e 19 128
e 19 129
e 19 132
e 19 135
e 19 138
e 19 141
e 19 145
e 20 24
e 20 25
e 20 26
e 20 30
e 20 32
e 20 33
e 20 34
e 20 35
e 20 37
e 20 39
e 20 40
e 20 43
e 20 45
e 20 52
e 20 54
e 20 55
e 20 62
e 20 63
e 20 64
e 20 65
e 20 69
e 20 72
e 20 73
e 20 74
e 20 81
e 20 84
e 20 89
e 20 93
e 20 96
e 20 97
e 20 98
e 20 104
e 20 108
e 20 113
e 20 116
e 20 118
e 20 119
e 20 121
e 20 122
e 20 123
e 20 128
e 20 129
e 20 131
e 20 132
e 20 134
e 20 138
e 20 144
e 20 146
e 20 148
e 20 149
e 20 150
e 21 22
e 21 26
e 21 27
e 21 30
e 21 33
e 21 34
e 21 36
e 21 37
e 21 39
e 21 40
e 21 41
e 21 46
e 21 50
e 21 51
e 21 52
e 21 53
e 21 60
e 21 65
e 21 66
e 21 68
e 21 69
e 21 71
e 21 72
e 21 76
e 21 84
e 21 88
e 21 89
e 21 92
e 21 94
e 21 98
e 21 99
e 21 102
e 21 104
e 21 106
e 21 108
e 21 113
e 21 114
e 21 116
e 21 117
e 21 118
e 21 119
e 21 122
e 21 124
e 21 127
e 21 129
e 21 131
e 21 136
e 21 137
e 21 138
e 21 139
e 21 149
e 22 26
e 22 27
e 22 29
e 22 30
e 22 39
e 22 41
e 22 43
e 22 44
e 22 49
e 22 51
e 22 53
e 22 55
e 22 58
e 22 61
e 22 63
e 22 65
e 22 66
e 22 67
e 22 69
e 22 70
e 22 72
e 22 73
e 22 77
e 22 79
e 22 83
e 22 84
e 22 88
e 22 90
e 22 92
e 22 94
e 22 95
e 22 98
e 22 100
e 22 103
e 22 104
e 22 107
e 22 109
e 22 112
e 22 113
e 22 121
e 22 123
e 22 126
e 22 127
e 22 128
e 22 130
e 22 131
e 22 133
e 22 135
e 22 136
e 22 139
e 22 146
e 23 25
e 23 27
e 23 33
e 23 34
e 23 35
e 23 37
e 23 38
e 23 39
e 23 42
e 23 44
e 23 50
e 23 53
e 23 54
e 23 57
e 23 58
e 23 60
e 23 63
e 23 64
e 23 66
e 23 67
e 23 68
e 23 69
e 23 72
e 23 73
e 23 81
e 23 84
e 23 86
e 23 87
e 23 89
e 23 91
e 23 94
e 23 95
e 23 96
e 23 97
e 23 100
e 23 101
e 23 104
e 23 107
e 23 109
e 23 112
e 23 113
e 23 114
e 23 117
e 23 120
e 23 122
e 23 123
e 23 125
e 23 126
e 23 128
e 23 129
e 23 131
e 23 132
e 23 133
e 23 136
e 23 138
e 23 140
e 23 141
e 23 142
e 23 146
e 24 26
e 24 29
e 24 31
e 24 34
e 24 40
e 24 42
e 24 43
e 24 44
e 24 48
e 24 51
e 24 55
e 24 59
e 24 60
e 24 62
e 24 66
e 24 68
e 24 73
e 24 75
e 24 83
e 24 84
e 24 94
e 24 96
e 24 103
e 24 104
e 24 108
e 24 113
e 24 114
e 24 116
e 24 118
e 24 122
e 24 124
e 24 126
e 24 127
e 24 130
e 24 131
e 24 133
e 24 135
e 24 136
e 24 137
e 24 138
e 24 139
e 24 140
e 24 141
e 24 147
e 24 148
e 25 26
e 25 27
e 25 35
e 25 36
e 25 37
e 25 39
e 25 40
e 25 49
e 25 50
e 25 54
e 25 55
e 25 56
e 25 59
e 25 60
e 25 61
e 25 63
e 25 64
e 25 67
e 25 68
e 25 70
e 25 74
e 25 75
e 25 76
e 25 79
e 25 81
e 25 82
e 25 83
e 25 86
e 25 87
e 25 88
e 25 91
e 25 93
e 25 100
e 25 101
e 25 102
e 25 103
e 25 105
e 25 107
e 25 111
e 25 113
e 25 114
e 25 120
e 25 124
e 25 125
e 25 127
e 25 128
e 25 130
e 25 132
e 25 133
e 25 134
e 25 136
e 25 140
e 25 141
e 25 142
e 25 144
e 25 146
e 26 27
e 26 30
e 26 33
e 26 35
e 26 39
e 26 40
e 26 41
e 26 48
e 26 51
e 26 53
e 26 54
e 26 58
e 26 62
e 26 64
e 26 66
e 26 68
e 26 70
e 26 72
e 26 73
e 26 74
e 26 75
e 26 76
e 26 78
e 26 83
e 26 87
e 26 92
e 26 93
e 26 100
e 26 103
e 26 106
e 26 107
e 26 118
e 26 119
e 26 120
e 26 123
e 26 124
e 26 127
e 26 133
e 26 136
e 26 139
e 26 142
e 26 143
e 26 144
e 26 145
e 26 147
e 26 149
e 26 150
e 27 30
e 27 32
e 27 33
e 27 34
e 27 35
e 27 36
e 27 38
e 27 42
e 27 43
e 27 44
e 27 45
e 27 50
e 27 54
e 27 56
e 27 61
e 27 63
e 27 64
e 27 85
e 27 87
e 27 93
e 27 94
e 27 98
e 27 107
e 27 112
e 27 113
e 27 115
e 27 119
e 27 122
e 27 125
e 27 127
e 27 128
e 27 129
e 27 130
e 27 132
e 27 134
e 27 140
e 27 142
e 27 143
e 27 144
e 27 145
e 27 148
e 28 30
e 28 31
e 28 32
e 28 33
e 28 34
e 28 36
e 28 39
e 28 48
e 28 52
e 28 53
e 28 54
e 28 55
e 28 57
e 28 58
e 28 62
e 28 63
e 28 71
e 28 73
e 28 78
e 28 79
e 28 80
e 28 82
e 28 84
e 28 85
e 28 89
e 28 91
e 28 92
e 28 95
e 28 97
e 28 99
e 28 103
e 28 107
e 28 110
e 28 113
e 28 117
e 28 119
e 28 120
e 28 123
e 28 125
e 28 128
e 28 129
e 28 131
e 28 139
e 28 140
e 28 148
e 29 34
e 29 35
e 29 36
e 29 39
e 29 40
e 29 41
e 29 49
e 29 50
e 29 51
e 29 57
e 29 59
e 29 60
e 29 63
e 29 64
e 29 67
e 29 69
e 29 70
e 29 73
e 29 84
e 29 87
e 29 89
e 29 90
e 29 91
e 29 95
e 29 97
e 29 102
e 29 104
e 29 105
e 29 115
e 29 117
e 29 127
e 29 128
e 29 130
e 29 131
e 29 134
e 29 137
e 29 140
e 29 141
e 29 143
e 29 144
e 29 145
e 29 149
e 29 150
e 30 34
e 30 40
e 30 41
e 30 46
e 30 48
e 30 50
e 30 51
e 30 55
e 30 57
e 30 58
e 30 60
e 30 61
e 30 62
e 30 63
e 30 67
e 30 70
e 30 71
e 30 74
e 30 75
e 30 76
e 30 81
e 30 88
e 30 91
e 30 92
e 30 95
e 30 99
e 30 100
e 30 102
e 30 103
e 30 105
e 30 107
e 30 109
e 30 110
e 30 111
e 30 113
e 30 121
e 30 125
e 30 128
e 30 129
e 30 132
e 30 134
e 30 135
e 30 136
e 30 139
e 30 143
e 30 144
e 30 145
e 30 147
e 30 148
e 31 34
e 31 37
e 31 47
e 31 48
e 31 51
e 31 54
e 31 66
e 31 68
e 31 69
e 31 72
e 31 73
e 31 76
e 31 78
e 31 85
e 31 89
e 31 91
e 31 92
e 31 96
e 31 97
e 31 100
e 31 103
e 31 107
e 31 108
e 31 111
e 31 112
e 31 113
e 31 114
e 31 116
e 31 117
e 31 121
e 31 125
e 31 126
e 31 131
e 31 140
e 31 143
e 31 144
e 31 145
e 31 146
e 31 149
e 32 33
e 32 37
e 32 39
e 32 40
e 32 43
e 32 44
e 32 45
e 32 46
e 32 48
e 32 49
e 32 51
e 32 52
e 32 56
e 32 59
e 32 63
e 32 64
e 32 65
e 32 68
e 32 69
e 32 72
e 32 74
e 32 76
e 32 77
e 32 80
e 32 81
e 32 83
e 32 85
e 32 92
e 32 95
e 32 97
e 32 98
e 32 100
e 32 102
e 32 105
e 32 106
e 32 109
e 32 110
e 32 111
e 32 112
e 32 118
e 32 119
e 32 120
e 32 131
e 32 137
e 32 138
e 32 142
e 32 146
e 32 147
e 33 37
e 33 38
e 33 39
e 33 40
e 33 45
e 33 49
e 33 51
e 33 55
e 33 57
e 33 59
e 33 62
e 33 63
e 33 66
e 33 68
e 33 69
e 33 71
e 33 72
e 33 74
e 33 81
e 33 83
e 33 85
e 33 87
e 33 89
e 33 91
e 33 92
e 33 96
e 33 97
e 33 99
e 33 101
e 33 102
e 33 103
e 33 104
e 33 106
e 33 107
e 33 108
e 33 111
e 33 114
e 33 116
e 33 119
e 33 121
e 33 122
e 33 124
e 33 130
e 33 131
e 33 133
e 33 135
e 33 137
e 33 138
e 33 141
e 33 145
e 33 146
e 33 147
e 33 148
e 34 41
e 34 42
e 34 44
e 34 47
e 34 49
e 34 50
e 34 51
e 34 52
e 34 55
e 34 61
e 34 63
e 34 66
e 34 68
e 34 69
e 34 70
e 34 75
e 34 78
e 34 79
e 34 84
e 34 86
e 34 92
e 34 93
e 34 94
e 34 96
e 34 98
e 34 99
e 34 104
e 34 107
e 34 108
e 34 110
e 34 113
e 34 117
e 34 120
e 34 124
e 34 125
e 34 127
e 34 129
e 34 130
e 34 138
e 34 144
e 34 146
e 34 148
e 34 149
e 35 36
e 35 37
e 35 41
e 35 45
e 35 46
e 35 47
e 35 48
e 35 60
e 35 63
e 35 66
e 35 68
e 35 69
e 35 72
e 35 74
e 35 76
e 35 78
e 35 79
e 35 81
e 35 83
e 35 86
e 35 87
e 35 94
e 35 95
e 35 96
e 35 97
e 35 100
e 35 107
e 35 108
e 35 111
e 35 113
e 35 114
e 35 116
e 35 120
e 35 124
e 35 126
e 35 128
e 35 130
e 35 133
e 35 134
e 35 136
e 35 137
e 35 142
e 35 144
e 35 145
e 35 146
e 35 148
e 35 149
e 36 43
e 36 44
e 36 47
e 36 49
e 36 51
e 36 55
e 36 60
e 36 61
e 36 63
e 36 65
e 36 66
e 36 67
e 36 73
e 36 75
e 36 76
e 36 77
e 36 78
e 36 79
e 36 81
e 36 82
e 36 83
e 36 85
e 36 87
e 36 88
e 36 92
e 36 94
e 36 97
e 36 99
e 36 101
e 36 106
e 36 108
e 36 116
e 36 119
e 36 120
e 36 121
e 36 125
e 36 134
e 36 136
e 36 139
e 36 140
e 36 142
e 36 144
e 36 147
e 36 150
e 37 40
e 37 41
e 37 42
e 37 43
e 37 46
e 37 47
e 37 48
e 37 51
e 37 52
e 37 54
e 37 56
e 37 60
e 37 69
e 37 70
e 37 77
e 37 85
e 37 86
e 37 89
e 37 92
e 37 97
e 37 98
e 37 105
e 37 108
e 37 112
e 37 117
e 37 118
e 37 119
e 37 122
e 37 123
e 37 124
e 37 126
e 37 127
e 37 132
e 37 137
e 37 140
e 37 142
e 37 144
e 37 149
e 38 41
e 38 42
e 38 44
e 38 47
e 38 48
e 38 49
e 38 51
e 38 52
e 38 59
e 38 60
e 38 61
e 38 62
e 38 63
e 38 68
e 38 70
e 38 71
e 38 75
e 38 78
e 38 79
e 38 80
e 38 84
e 38 87
e 38 94
e 38 99
e 38 100
e 38 104
e 38 105
e 38 110
e 38 114
e 38 116
e 38 119
e 38 120
e 38 124
e 38 125
e 38 127
e 38 128
e 38 129
e 38 132
e 38 138
e 38 139
e 38 140
e 38 142
e 38 150
e 39 40
e 39 42
e 39 44
e 39 49
e 39 52
e 39 53
e 39 59
e 39 63
e 39 64
e 39 65
e 39 68
e 39 73
e 39 77
e 39 78
e 39 89
e 39 90
e 39 91
e 39 92
e 39 93
e 39 94
e 39 95
e 39 97
e 39 100
e 39 101
e 39 105
e 39 109
e 39 112
e 39 118
e 39 119
e 39 120
e 39 124
e 39 127
e 39 128
e 39 131
e 39 133
e 39 134
e 39 136
e 39 137
e 39 139
e 39 140
e 39 141
e 39 145
e 39 148
e 39 149
e 39 150
e 40 41
e 40 42
e 40 45
e 40 48
e 40 49
e 40 53
e 40 54
e 40 55
e 40 59
e 40 61
e 40 65
e 40 70
e 40 73
e 40 78
e 40 80
e 40 81
e 40 84
e 40 85
e 40 87
e 40 89
e 40 90
e 40 92
e 40 98
e 40 102
e 40 103
e 40 105
e 40 110
e 40 113
e 40 115
e 40 116
e 40 117
e 40 118
e 40 119
e 40 120
e 40 123
e 40 127
e 40 128
e 40 129
e 40 132
e 40 134
e 40 135
e 40 137
e 40 138
e 40 146
e 40 147
e 40 148
e 40 149
e 41 43
e 41 46
e 41 47
e 41 49
e 41 51
e 41 53
e 41 59
e 41 62
e 41 65
e 41 66
e 41 67
e 41 68
e 41 72
e 41 77
e 41 79
e 41 82
e 41 84
e 41 87
e 41 88
e 41 89
e 41 90
e 41 94
e 41 95
e 41 100
e 41 101
e 41 104
e 41 106
e 41 108
e 41 115
e 41 118
e 41 119
e 41 125
e 41 130
e 41 133
e 41 136
e 41 137
e 41 143
e 41 150
e 42 43
e 42 45
e 42 47
e 42 48
e 42 50
e 42 55
e 42 60
e 42 62
e 42 66
e 42 67
e 42 69
e 42 70
e 42 77
e 42 78
e 42 81
e 42 82
e 42 85
e 42 87
e 42 89
e 42 90
e 42 91
e 42 94
e 42 95
e 42 101
e 42 102
e 42 103
e 42 105
e 42 108
e 42 109
e 42 113
e 42 116
e 42 117
e 42 118
e 42 119
e 42 121
e 42 123
e 42 124
e 42 125
e 42 127
e 42 129
e 42 130
e 42 132
e 42 134
e 42 135
e 42 136
e 42 142
e 42 150
e 43 45
e 43 46
e 43 50
e 43 56
e 43 59
e 43 60
e 43 61
e 43 62
e 43 64
e 43 66
e 43 70
e 43 77
e 43 78
e 43 80
e 43 82
e 43 87
e 43 94
e 43 95
e 43 99
e 43 101
e 43 106
e 43 107
e 43 112
e 43 113
e 43 118
e 43 119
e 43 120
e 43 121
e 43 122
e 43 125
e 43 130
e 43 132
e 43 134
e 43 135
e 43 139
e 43 141
e 43 142
e 43 143
e 43 147
e 43 148
e 43 149
e 44 46
e 44 47
e 44 48
e 44 52
e 44 59
e 44 62
e 44 63
e 44 64
e 44 65
e 44 67
e 44 72
e 44 73
e 44 76
e 44 77
e 44 78
e 44 79
e 44 80
e 44 83
e 44 84
e 44 95
e 44 102
e 44 105
e 44 108
e 44 110
e 44 112
e 44 114
e 44 116
e 44 120
e 44 121
e 44 123
e 44 124
e 44 129
e 44 132
e 44 137
e 44 142
e 44 145
e 44 147
e 44 150
e 45 49
e 45 56
e 45 59
e 45 60
e 45 65
e 45 71
e 45 75
e 45 76
e 45 78
e 45 79
e 45 80
e 45 85
e 45 87
e 45 97
e 45 101
e 45 102
e 45 103
e 45 104
e 45 105
e 45 106
e 45 108
e 45 109
e 45 110
e 45 111
e 45 112
e 45 113
e 45 118
e 45 120
e 45 121
e 45 124
e 45 125
e 45 126
e 45 127
e 45 130
e 45 132
e 45 133
e 45 136
e 45 143
e 45 144
e 45 147
e 45 148
e 45 149
e 45 150
e 46 48
e 46 51
e 46 52
e 46 57
e 46 59
e 46 61
e 46 64
e 46 66
e 46 68
e 46 69
e 46 76
e 46 78
e 46 79
e 46 80
e 46 81
e 46 83
e 46 86
e 46 87
e 46 88
e 46 91
e 46 94
e 46 95
e 46 96
e 46 97
e 46 98
e 46 101
e 46 105
e 46 106
e 46 107
e 46 108
e 46 114
e 46 122
e 46 124
e 46 126
e 46 127
e 46 128
e 46 134
e 46 135
e 46 137
e 46 141
e 46 142
e 46 143
e 46 144
e 46 149
e 46 150
e 47 50
e 47 53
e 47 57
e 47 58
e 47 59
e 47 61
e 47 63
e 47 65
e 47 68
e 47 71
e 47 74
e 47 75
e 47 76
e 47 79
e 47 80
e 47 81
e 47 84
e 47 88
e 47 89
e 47 92
e 47 94
e 47 96
e 47 100
e 47 104
e 47 108
e 47 109
e 47 110
e 47 111
e 47 112
e 47 114
e 47 116
e 47 117
e 47 118
e 47 119
e 47 122
e 47 124
e 47 133
e 47 135
e 47 136
e 47 137
e 47 139
e 47 140
e 47 141
e 48 51
e 48 54
e 48 55
e 48 57
e 48 58
e 48 60
e 48 61
e 48 63
e 48 65
e 48 66
e 48 68
e 48 69
e 48 71
e 48 73
e 48 74
e 48 79
e 48 80
e 48 83
e 48 84
e 48 85
e 48 86
e 48 87
e 48 90
e 48 94
e 48 97
e 48 99
e 48 100
e 48 103
e 48 104
e 48 107
e 48 109
e 48 110
e 48 111
e 48 114
e 48 117
e 48 118
e 48 119
e 48 120
e 48 122
e 48 125
e 48 126
e 48 127
e 48 130
e 48 132
e 48 134
e 48 137
e 48 140
e 48 145
e 48 147
e 48 149
e 48 150
e 49 51
e 49 54
e 49 58
e 49 59
e 49 61
e 49 62
e 49 64
e 49 66
e 49 72
e 49 73
e 49 75
e 49 81
e 49 87
e 49 88
e 49 92
e 49 93
e 49 94
e 49 95
e 49 102
e 49 103
e 49 106
e 49 107
e 49 111
e 49 112
e 49 113
e 49 118
e 49 120
e 49 123
e 49 126
e 49 128
e 49 130
e 49 134
e 49 136
e 49 139
e 49 143
e 49 148
e 49 149
e 50 52
e 50 55
e 50 60
e 50 65
e 50 66
e 50 72
e 50 76
e 50 78
e 50 79
e 50 80
e 50 86
e 50 87
e 50 88
e 50 96
e 50 101
e 50 102
e 50 110
e 50 115
e 50 116
e 50 119
e 50 124
e 50 125
e 50 126
e 50 131
e 50 132
e 50 134
e 50 137
e 50 138
e 50 141
e 50 143
e 50 144
e 50 147
e 50 148
e 51 52
e 51 55
e 51 61
e 51 63
e 51 64
e 51 69
e 51 71
e 51 75
e 51 77
e 51 78
e 51 80
e 51 82
e 51 86
e 51 93
e 51 94
e 51 103
e 51 106
e 51 108
e 51 111
e 51 112
e 51 113
e 51 118
e 51 119
e 51 121
e 51 123
e 51 125
e 51 126
e 51 127
e 51 129
e 51 135
e 51 138
e 51 140
e 51 141
e 51 143
e 51 144
e 51 145
e 51 146
e 51 147
e 52 53
e 52 56
e 52 57
e 52 58
e 52 59
e 52 66
e 52 67
e 52 69
e 52 71
e 52 76
e 52 77
e 52 83
e 52 85
e 52 89
e 52 90
e 52 98
e 52 99
e 52 100
e 52 104
e 52 108
e 52 110
e 52 113
e 52 115
e 52 116
e 52 119
e 52 121
e 52 125
e 52 126
e 52 127
e 52 131
e 52 135
e 52 137
e 52 139
e 52 143
e 52 145
e 53 56
e 53 57
e 53 61
e 53 62
e 53 64
e 53 66
e 53 67
e 53 72
e 53 76
e 53 80
e 53 85
e 53 89
e 53 90
e 53 95
e 53 97
e 53 98
e 53 100
e 53 101
e 53 102
e 53 103
e 53 106
e 53 109
e 53 120
e 53 121
e 53 124
e 53 125
e 53 129
e 53 130
e 53 132
e 53 137
e 53 138
e 53 140
e 53 142
e 53 144
e 53 145
e 53 146
e 53 147
e 53 149
e 53 150
e 54 56
e 54 63
e 54 68
e 54 70
e 54 74
e 54 77
e 54 78
e 54 80
e 54 81
e 54 82
e 54 84
e 54 86
e 54 87
e 54 88
e 54 89
e 54 92
e 54 94
e 54 96
e 54 98
e 54 100
e 54 102
e 54 104
e 54 107
e 54 111
e 54 114
e 54 120
e 54 121
e 54 122
e 54 125
e 54 127
e 54 129
e 54 132
e 54 133
e 54 134
e 54 136
e 54 141
e 54 142
e 54 145
e 54 146
e 54 148
e 55 56
e 55 57
e 55 62
e 55 64
e 55 65
e 55 68
e 55 69
e 55 70
e 55 73
e 55 74
e 55 77
e 55 79
e 55 81
e 55 83
e 55 99
e 55 104
e 55 108
e 55 114
e 55 119
e 55 120
e 55 121
e 55 124
e 55 125
e 55 130
e 55 131
e 55 132
e 55 134
e 55 140
e 55 141
e 55 144
e 55 146
e 55 149
e 55 150
e 56 58
e 56 60
e 56 61
e 56 63
e 56 65
e 56 67
e 56 69
e 56 73
e 56 74
e 56 81
e 56 82
e 56 84
e 56 91
e 56 92
e 56 99
e 56 104
e 56 108
e 56 109
e 56 112
e 56 114
e 56 115
e 56 118
e 56 119
e 56 121
e 56 125
e 56 126
e 56 127
e 56 128
e 56 130
e 56 135
e 56 136
e 56 139
e 56 140
e 56 141
e 56 142
e 56 143
e 56 144
e 56 146
e 57 59
e 57 61
e 57 66
e 57 69
e 57 70
e 57 76
e 57 78
e 57 81
e 57 91
e 57 92
e 57 94
e 57 95
e 57 97
e 57 101
e 57 105
e 57 107
e 57 110
e 57 115
e 57 121
e 57 122
e 57 125
e 57 132
e 57 146
e 57 149
e 57 150
e 58 59
e 58 60
e 58 63
e 58 64
e 58 65
e 58 66
e 58 68
e 58 72
e 58 73
e 58 74
e 58 75
e 58 77
e 58 78
e 58 81
e 58 82
e 58 83
e 58 85
e 58 86
e 58 89
e 58 91
e 58 92
e 58 93
e 58 95
e 58 96
e 58 98
e 58 100
e 58 103
e 58 104
e 58 110
e 58 112
e 58 113
e 58 116
e 58 120
e 58 124
e 58 125
e 58 128
e 58 133
e 58 136
e 58 137
e 58 138
e 58 139
e 58 141
e 58 142
e 58 143
e 58 144
e 58 145
e 58 146
e 58 148
e 58 149
e 58 150
e 59 61
e 59 63
e 59 64
e 59 65
e 59 66
e 59 73
e 59 76
e 59 81
e 59 84
e 59 85
e 59 86
e 59 88
e 59 94
e 59 97
e 59 98
e 59 100
e 59 103
e 59 105
e 59 106
e 59 107
e 59 111
e 59 116
e 59 121
e 59 126
e 59 127
e 59 128
e 59 129
e 59 130
e 59 133
e 59 139
e 59 140
e 59 142
e 59 146
e 59 147
e 59 148
e 59 149
e 59 150
e 60 64
e 60 65
e 60 66
e 60 67
e 60 68
e 60 70
e 60 73
e 60 76
e 60 77
e 60 81
e 60 85
e 60 87
e 60 89
e 60 90
e 60 91
e 60 92
e 60 95
e 60 96
e 60 99
e 60 100
e 60 101
e 60 103
e 60 104
e 60 105
e 60 106
e 60 107
e 60 110
e 60 113
e 60 118
e 60 120
e 60 121
e 60 128
e 60 131
e 60 134
e 60 142
e 60 144
e 60 145
e 60 148
e 61 65
e 61 66
e 61 67
e 61 69
e 61 70
e 61 71
e 61 72
e 61 75
e 61 77
e 61 79
e 61 80
e 61 81
e 61 83
e 61 84
e 61 85
e 61 88
e 61 90
e 61 93
e 61 96
e 61 100
e 61 101
e 61 102
e 61 105
e 61 106
e 61 109
e 61 114
e 61 116
e 61 117
e 61 122
e 61 123
e 61 124
e 61 125
e 61 126
e 61 127
e 61 128
e 61 130
e 61 135
e 61 141
e 61 143
e 61 144
e 61 145
e 61 146
e 61 147
e 61 148
e 62 69
e 62 72
e 62 76
e 62 77
e 62 80
e 62 81
e 62 84
e 62 88
e 62 90
e 62 93
e 62 95
e 62 96
e 62 97
e 62 98
e 62 99
e 62 100
e 62 103
e 62 106
e 62 107
e 62 108
e 62 109
e 62 111
e 62 114
e 62 116
e 62 118
e 62 120
e 62 122
e 62 129
e 62 130
e 62 131
e 62 132
e 62 133
e 62 135
e 62 140
e 62 141
e 62 147
e 62 149
e 62 150
e 63 65
e 63 66
e 63 67
e 63 71
e 63 72
e 63 74
e 63 79
e 63 83
e 63 84
e 63 88
e 63 91
e 63 93
e 63 95
e 63 97
e 63 101
e 63 103
e 63 113
e 63 114
e 63 115
e 63 116
e 63 117
e 63 118
e 63 122
e 63 123
e 63 124
e 63 125
e 63 127
e 63 129
e 63 132
e 63 137
e 63 140
e 63 142
e 63 146
e 63 148
e 63 149
e 63 150
e 64 71
e 64 72
e 64 75
e 64 77
e 64 78
e 64 79
e 64 80
e 64 81
e 64 82
e 64 83
e 64 92
e 64 93
e 64 94
e 64 101
e 64 102
e 64 104
e 64 106
e 64 109
e 64 112
e 64 113
e 64 114
e 64 116
e 64 125
e 64 132
e 64 134
e 64 136
e 64 140
e 64 142
e 64 144
e 64 150
e 65 66
e 65 69
e 65 71
e 65 75
e 65 76
e 65 77
e 65 79
e 65 80
e 65 81
e 65 84
e 65 85
e 65 87
e 65 104
e 65 107
e 65 108
e 65 111
e 65 114
e 65 115
e 65 119
e 65 127
e 65 133
e 65 135
e 65 136
e 65 142
e 65 147
e 65 148
e 65 149
e 66 72
e 66 74
e 66 76
e 66 77
e 66 79
e 66 80
e 66 84
e 66 85
e 66 87
e 66 88
e 66 95
e 66 101
e 66 103
e 66 104
e 66 105
e 66 108
e 66 113
e 66 114
e 66 116
e 66 119
e 66 126
e 66 127
e 66 130
e 66 132
e 66 134
e 66 135
e 66 138
e 66 142
e 66 144
e 66 145
e 66 150
e 67 72
e 67 74
e 67 75
e 67 79
e 67 81
e 67 83
e 67 86
e 67 88
e 67 89
e 67 92
e 67 96
e 67 98
e 67 100
e 67 101
e 67 103
e 67 108
e 67 111
e 67 112
e 67 113
e 67 115
e 67 116
e 67 119
e 67 121
e 67 124
e 67 126
e 67 137
e 67 138
e 67 140
e 67 143
e 67 144
e 67 150
e 68 69
e 68 73
e 68 75
e 68 81
e 68 82
e 68 84
e 68 89
e 68 90
e 68 91
e 68 92
e 68 95
e 68 98
e 68 108
e 68 110
e 68 112
e 68 113
e 68 114
e 68 115
e 68 121
e 68 128
e 68 131
e 68 134
e 68 137
e 68 144
e 68 145
e 69 70
e 69 71
e 69 73
e 69 74
e 69 77
e 69 79
e 69 80
e 69 81
e 69 83
e 69 86
e 69 88
e 69 89
e 69 92
e 69 94
e 69 95
e 69 96
e 69 101
e 69 103
e 69 106
e 69 108
e 69 109
e 69 110
e 69 112
e 69 114
e 69 115
e 69 116
e 69 117
e 69 118
e 69 119
e 69 123
e 69 130
e 69 132
e 69 133
e 69 134
e 69 144
e 69 145
e 69 147
e 69 148
e 69 149
e 70 71
e 70 72
e 70 74
e 70 79
e 70 82
e 70 87
e 70 92
e 70 94
e 70 101
e 70 105
e 70 109
e 70 111
e 70 113
e 70 114
e 70 116
e 70 117
e 70 118
e 70 122
e 70 123
e 70 126
e 70 133
e 70 135
e 70 137
e 70 143
e 70 145
e 70 149
e 70 150
e 71 76
e 71 78
e 71 82
e 71 83
e 71 84
e 71 85
e 71 87
e 71 88
e 71 89
e 71 91
e 71 92
e 71 94
e 71 96
e 71 100
e 71 101
e 71 107
e 71 109
e 71 118
e 71 121
e 71 123
e 71 124
e 71 126
e 71 127
e 71 128
e 71 129
e 71 135
e 71 139
e 71 140
e 71 145
e 71 146
e 71 147
e 71 148
e 72 73
e 72 77
e 72 82
e 72 83
e 72 86
e 72 87
e 72 88
e 72 92
e 72 94
e 72 95
e 72 96
e 72 97
e 72 98
e 72 103
e 72 105
e 72 106
e 72 107
e 72 108
e 72 109
e 72 114
e 72 118
e 72 119
e 72 123
e 72 124
e 72 125
e 72 126
e 72 127
e 72 130
e 72 131
e 72 132
e 72 134
e 72 135
e 72 136
e 72 138
e 72 139
e 72 144
e 72 145
e 72 147
e 72 150
e 73 77
e 73 79
e 73 83
e 73 84
e 73 86
e 73 89
e 73 91
e 73 97
e 73 98
e 73 100
e 73 101
e 73 103
e 73 104
e 73 110
e 73 112
e 73 114
e 73 117
e 73 120
e 73 129
e 73 133
e 73 135
e 73 138
e 73 145
e 74 75
e 74 79
e 74 83
e 74 86
e 74 87
e 74 89
e 74 90
e 74 93
e 74 94
e 74 95
e 74 96
e 74 100
e 74 103
e 74 108
e 74 109
e 74 110
e 74 113
e 74 114
e 74 115
e 74 119
e 74 121
e 74 124
e 74 126
e 74 128
e 74 129
e 74 130
e 74 141
e 74 143
e 74 144
e 74 146
e 74 147
e 74 150
e 75 76
e 75 78
e 75 79
e 75 81
e 75 86
e 75 88
e 75 89
e 75 90
e 75 92
e 75 93
e 75 94
e 75 97
e 75 99
e 75 103
e 75 108
e 75 109
e 75 111
e 75 116
e 75 119
e 75 120
e 75 123
e 75 124
e 75 127
e 75 129
e 75 133
e 75 138
e 75 140
e 75 145
e 75 146
e 75 148
e 76 78
e 76 87
e 76 89
e 76 90
e 76 94
e 76 95
e 76 96
e 76 97
e 76 98
e 76 101
e 76 102
e 76 103
e 76 104
e 76 109
e 76 115
e 76 116
e 76 119
e 76 121
e 76 126
e 76 131
e 76 132
e 76 133
e 76 134
e 76 135
e 76 136
e 76 139
e 76 143
e 76 144
e 76 146
e 76 147
e 76 148
e 77 78
e 77 79
e 77 80
e 77 81
e 77 83
e 77 85
e 77 86
e 77 87
e 77 93
e 77 95
e 77 100
e 77 101
e 77 102
e 77 103
e 77 104
e 77 105
e 77 106
e 77 110
e 77 113
e 77 114
e 77 116
e 77 118
e 77 119
e 77 121
e 77 123
e 77 127
e 77 128
e 77 129
e 77 132
e 77 135
e 77 136
e 77 137
e 77 142
e 77 145
e 78 81
e 78 82
e 78 84
e 78 85
e 78 86
e 78 88
e 78 93
e 78 94
e 78 95
e 78 98
e 78 99
e 78 101
e 78 104
e 78 105
e 78 106
e 78 108
e 78 110
e 78 111
e 78 117
e 78 121
e 78 123
e 78 125
e 78 126
e 78 128
e 78 130
e 78 132
e 78 133
e 78 135
e 78 136
e 78 138
e 78 141
e 78 147
e 78 149
e 78 150
e 79 81
e 79 82
e 79 86
e 79 91
e 79 92
e 79 94
e 79 97
e 79 98
e 79 101
e 79 103
e 79 104
e 79 107
e 79 108
e 79 111
e 79 116
e 79 118
e 79 123
e 79 124
e 79 126
e 79 127
e 79 129
e 79 131
e 79 133
e 79 134
e 79 135
e 79 140
e 79 141
e 79 142
e 79 146
e 80 81
e 80 82
e 80 84
e 80 86
e 80 90
e 80 91
e 80 96
e 80 99
e 80 100
e 80 104
e 80 105
e 80 106
e 80 108
e 80 111
e 80 115
e 80 123
e 80 124
e 80 125
e 80 126
e 80 128
e 80 129
e 80 132
e 80 134
e 80 136
e 80 137
e 80 139
e 80 141
e 80 142
e 80 144
e 80 146
e 80 149
e 81 82
e 81 86
e 81 90
e 81 91
e 81 94
e 81 95
e 81 98
e 81 102
e 81 105
e 81 106
e 81 107
e 81 109
e 81 110
e 81 113
e 81 116
e 81 117
e 81 119
e 81 120
e 81 122
e 81 125
e 81 126
e 81 127
e 81 131
e 81 132
e 81 133
e 81 134
e 81 137
e 81 139
e 81 140
e 81 142
e 81 144
e 81 145
e 81 146
e 81 148
e 81 149
e 82 84
e 82 89
e 82 91
e 82 92
e 82 96
e 82 97
e 82 99
e 82 100
e 82 101
e 82 103
e 82 105
e 82 106
e 82 112
e 82 114
e 82 117
e 82 118
e 82 119
e 82 120
e 82 124
e 82 133
e 82 136
e 82 138
e 82 143
e 82 149
e 82 150
e 83 85
e 83 86
e 83 88
e 83 90
e 83 93
e 83 95
e 83 97
e 83 103
e 83 106
e 83 108
e 83 111
e 83 115
e 83 119
e 83 120
e 83 123
e 83 132
e 83 133
e 83 135
e 83 136
e 83 139
e 83 142
e 83 145
e 83 147
e 84 89
e 84 90
e 84 95
e 84 96
e 84 98
e 84 106
e 84 109
e 84 110
e 84 111
e 84 113
e 84 117
e 84 118
e 84 119
e 84 120
e 84 122
e 84 126
e 84 129
e 84 134
e 84 136
e 84 139
e 84 140
e 84 144
e 84 146
e 84 148
e 84 150
e 85 86
e 85 87
e 85 90
e 85 91
e 85 93
e 85 96
e 85 98
e 85 100
e 85 105
e 85 109
e 85 112
e 85 113
e 85 114
e 85 116
e 85 118
e 85 122
e 85 134
e 85 135
e 85 140
e 85 141
e 85 143
e 85 144
e 85 145
e 85 149
e 85 150
e 86 87
e 86 95
e 86 96
e 86 97
e 86 98
e 86 100
e 86 101
e 86 108
e 86 109
e 86 110
e 86 111
e 86 115
e 86 117
e 86 118
e 86 119
e 86 120
e 86 121
e 86 125
e 86 134
e 86 138
e 86 141
e 86 142
e 86 146
e 86 147
e 86 150
e 87 88
e 87 96
e 87 97
e 87 98
e 87 99
e 87 105
e 87 106
e 87 107
e 87 110
e 87 111
e 87 114
e 87 115
e 87 117
e 87 122
e 87 125
e 87 126
e 87 128
e 87 132
e 87 134
e 87 135
e 87 136
e 87 140
e 87 142
e 87 143
e 87 149
e 88 89
e 88 91
e 88 92
e 88 93
e 88 95
e 88 100
e 88 104
e 88 106
e 88 107
e 88 110
e 88 111
e 88 114
e 88 117
e 88 119
e 88 122
e 88 125
e 88 130
e 88 131
e 88 135
e 88 138
e 88 139
e 88 140
e 88 142
e 88 143
e 88 148
e 88 149
e 89 90
e 89 91
e 89 96
e 89 98
e 89 99
e 89 102
e 89 103
e 89 104
e 89 106
e 89 108
e 89 109
e 89 112
e 89 113
e 89 115
e 89 122
e 89 125
e 89 127
e 89 131
e 89 133
e 89 135
e 89 138
e 89 141
e 89 142
e 89 143
e 89 145
e 89 147
e 89 149
e 89 150
e 90 92
e 90 93
e 90 94
e 90 99
e 90 100
e 90 101
e 90 106
e 90 107
e 90 110
e 90 112
e 90 114
e 90 115
e 90 123
e 90 124
e 90 128
e 90 130
e 90 132
e 90 133
e 90 135
e 90 137
e 90 138
e 90 140
e 90 144
e 90 148
e 90 149
e 91 94
e 91 97
e 91 100
e 91 104
e 91 107
e 91 121
e 91 123
e 91 127
e 91 128
e 91 131
e 91 132
e 91 135
e 91 136
e 91 137
e 91 147
e 91 150
e 92 94
e 92 95
e 92 96
e 92 101
e 92 102
e 92 103
e 92 104
e 92 105
e 92 112
e 92 115
e 92 116
e 92 117
e 92 120
e 92 122
e 92 124
e 92 125
e 92 126
e 92 132
e 92 142
e 92 146
e 92 149
e 93 94
e 93 95
e 93 97
e 93 100
e 93 104
e 93 105
e 93 109
e 93 110
e 93 111
e 93 115
e 93 119
e 93 120
e 93 121
e 93 126
e 93 128
e 93 129
e 93 134
e 93 136
e 93 138
e 93 142
e 93 144
e 93 149
e 93 150
e 94 95
e 94 99
e 94 101
e 94 102
e 94 104
e 94 105
e 94 107
e 94 108
e 94 109
e 94 110
e 94 111
e 94 113
e 94 115
e 94 122
e 94 124
e 94 126
e 94 128
e 94 132
e 94 133
e 94 134
e 94 137
e 94 138
e 94 140
e 94 142
e 94 143
e 94 146
e 94 149
e 95 96
e 95 97
e 95 99
e 95 101
e 95 102
e 95 105
e 95 106
e 95 108
e 95 110
e 95 113
e 95 118
e 95 120
e 95 121
e 95 124
e 95 127
e 95 129
e 95 130
e 95 136
e 95 142
e 95 144
e 95 145
e 95 147
e 95 148
e 95 149
e 96 99
e 96 104
e 96 105
e 96 108
e 96 117
e 96 119
e 96 121
e 96 123
e 96 125
e 96 128
e 96 129
e 96 130
e 96 131
e 96 138
e 96 140
e 96 141
e 96 144
e 96 145
e 96 146
e 96 149
e 97 98
e 97 101
e 97 102
e 97 106
e 97 108
e 97 109
e 97 110
e 97 112
e 97 113
e 97 115
e 97 118
e 97 119
e 97 122
e 97 123
e 97 126
e 97 130
e 97 131
e 97 133
e 97 134
e 97 137
e 97 140
e 97 142
e 97 143
e 97 145
e 97 150
e 98 99
e 98 102
e 98 105
e 98 108
e 98 113
e 98 115
e 98 116
e 98 121
e 98 122
e 98 123
e 98 125
e 98 128
e 98 129
e 98 131
e 98 133
e 98 134
e 98 135
e 98 136
e 98 137
e 98 138
e 98 141
e 98 143
e 98 144
e 98 146
e 99 100
e 99 102
e 99 104
e 99 105
e 99 106
e 99 111
e 99 114
e 99 116
e 99 120
e 99 122
e 99 126
e 99 127
e 99 128
e 99 131
e 99 137
e 99 139
e 99 141
e 99 142
e 99 143
e 99 147
e 100 101
e 100 106
e 100 108
e 100 112
e 100 113
e 100 114
e 100 115
e 100 117
e 100 119
e 100 120
e 100 127
e 100 128
e 100 130
e 100 132
e 100 133
e 100 136
e 100 138
e 100 142
e 100 146
e 101 110
e 101 116
e 101 117
e 101 118
e 101 119
e 101 121
e 101 122
e 101 133
e 101 134
e 101 136
e 101 137
e 101 142
e 101 144
e 101 145
e 101 146
e 101 149
e 101 150
e 102 103
e 102 104
e 102 111
e 102 112
e 102 114
e 102 115
e 102 120
e 102 121
e 102 125
e 102 127
e 102 128
e 102 129
e 102 130
e 102 131
e 102 133
e 102 135
e 102 139
e 102 140
e 102 142
e 102 144
e 102 146
e 102 147
e 102 148
e 103 105
e 103 111
e 103 112
e 103 115
e 103 116
e 103 118
e 103 127
e 103 129
e 103 134
e 103 135
e 103 138
e 103 140
e 103 149
e 104 106
e 104 109
e 104 111
e 104 112
e 104 113
e 104 114
e 104 115
e 104 116
e 104 117
e 104 123
e 104 126
e 104 129
e 104 130
e 104 136
e 104 138
e 104 141
e 104 143
e 104 144
e 104 146
e 104 147
e 105 108
e 105 110
e 105 111
e 105 117
e 105 120
e 105 123
e 105 124
e 105 125
e 105 126
e 105 127
e 105 128
e 105 133
e 105 134
e 105 136
e 105 138
e 105 141
e 105 146
e 105 148
e 105 150
e 106 108
e 106 109
e 106 111
e 106 112
e 106 114
e 106 115
e 106 118
e 106 121
e 106 124
e 106 127
e 106 130
e 106 132
e 106 133
e 106 134
e 106 135
e 106 139
e 106 142
e 106 144
e 106 146
e 106 147
e 106 149
e 107 108
e 107 109
e 107 111
e 107 119
e 107 121
e 107 122
e 107 123
e 107 124
e 107 134
e 107 136
e 107 141
e 107 149
e 107 150
e 108 109
e 108 111
e 108 112
e 108 113
e 108 115
e 108 120
e 108 125
e 108 127
e 108 128
e 108 129
e 108 130
e 108 135
e 108 138
e 108 139
e 108 143
e 108 144
e 108 145
e 108 146
e 108 150
e 109 110
e 109 112
e 109 113
e 109 120
e 109 126
e 109 130
e 109 131
e 109 132
e 109 133
e 109 134
e 109 135
e 109 136
e 109 138
e 109 139
e 109 142
e 109 146
e 109 150
e 110 112
e 110 119
e 110 120
e 110 124
e 110 125
e 110 127
e 110 129
e 110 130
e 110 135
e 110 136
e 110 137
e 110 138
e 110 139
e 110 141
e 110 143
e 110 145
e 110 146
e 111 112
e 111 113
e 111 114
e 111 115
e 111 118
e 111 120
e 111 121
e 111 124
e 111 125
e 111 130
e 111 134
e 111 140
e 111 142
e 111 145
e 111 147
e 111 148
e 112 113
e 112 116
e 112 117
e 112 118
e 112 119
e 112 120
e 112 121
e 112 124
e 112 125
e 112 126
e 112 127
e 112 131
e 112 132
e 112 133
e 112 134
e 112 142
e 112 144
e 112 149
e 113 116
e 113 117
e 113 119
e 113 122
e 113 123
e 113 129
e 113 130
e 113 131
e 113 132
e 113 133
e 113 137
e 113 139
e 113 142
e 113 144
e 113 146
e 113 147
e 113 150
e 114 115
e 114 121
e 114 127
e 114 129
e 114 134
e 114 137
e 114 140
e 114 142
e 115 118
e 115 120
e 115 124
e 115 125
e 115 127
e 115 129
e 115 131
e 115 132
e 115 137
e 115 141
e 115 144
e 115 145
e 115 147
e 116 117
e 116 119
e 116 121
e 116 122
e 116 125
e 116 127
e 116 128
e 116 129
e 116 131
e 116 133
e 116 138
e 116 140
e 116 143
e 116 144
e 116 149
e 117 120
e 117 122
e 117 125
e 117 130
e 117 131
e 117 134
e 117 136
e 117 137
e 117 138
e 117 142
e 117 143
e 117 144
e 117 146
e 117 147
e 117 150
e 118 121
e 118 122
e 118 124
e 118 125
e 118 126
e 118 129
e 118 130
e 118 137
e 118 138
e 118 141
e 118 149
e 119 121
e 119 122
e 119 123
e 119 127
e 119 131
e 119 133
e 119 135
e 119 139
e 119 140
e 119 141
e 119 145
e 119 146
e 119 148
e 119 149
e 120 123
e 120 124
e 120 127
e 120 128
e 120 131
e 120 134
e 120 137
e 120 142
e 120 144
e 120 145
e 120 146
e 120 148
e 120 150
e 121 124
e 121 127
e 121 129
e 121 130
e 121 131
e 121 132
e 121 133
e 121 134
e 121 135
e 121 136
e 121 138
e 121 139
e 121 140
e 121 141
e 121 147
e 122 124
e 122 131
e 122 133
e 122 134
e 122 135
e 122 137
e 122 138
e 122 144
e 122 147
e 122 149
e 122 150
e 123 124
e 123 126
e 123 129
e 123 132
e 123 133
e 123 134
e 123 137
e 123 139
e 123 140
e 123 141
e 123 143
e 123 145
e 123 146
e 123 147
e 124 126
e 124 127
e 124 129
e 124 136
e 124 139
e 124 141
e 124 142
e 124 143
e 124 147
e 124 148
e 124 149
e 125 130
e 125 131
e 125 134
e 125 136
e 125 137
e 125 139
e 125 140
e 125 143
e 125 144
e 125 145
e 125 148
e 126 129
e 126 132
e 126 135
e 126 137
e 126 138
e 126 146
e 127 128
e 127 130
e 127 131
e 127 136
e 127 139
e 127 141
e 127 143
e 127 145
e 127 147
e 127 148
e 127 149
e 127 150
e 128 131
e 128 132
e 128 142
e 128 144
e 128 146
e 128 147
e 128 148
e 128 149
e 129 135
e 129 136
e 129 139
e 129 142
e 129 143
e 129 144
e 129 145
e 129 146
e 129 147
e 130 133
e 130 135
e 130 136
e 130 137
e 130 141
e 131 132
e 131 133
e 131 140
e 131 141
e 131 146
e 131 147
e 131 150
e 132 135
e 132 136
e 132 137
e 132 138
e 132 141
e 132 142
e 132 146
e 132 147
e 132 148
e 132 150
e 133 134
e 133 135
e 133 138
e 133 144
e 133 146
e 133 150
e 134 135
e 134 139
e 134 140
e 134 142
e 134 143
e 134 144
e 134 147
e 134 148
e 134 149
e 135 136
e 135 138
e 135 146
e 135 148
e 135 149
e 135 150
e 136 137
e 136 138
e 136 141
e 136 142
e 136 143
e 136 148
e 136 150
e 137 138
e 137 139
e 137 140
e 137 141
e 137 142
e 137 144
e 137 147
e 137 148
e 137 149
e 137 150
e 138 139
e 138 143
e 138 147
e 138 148
e 138 150
e 139 142
e 139 144
e 139 145
e 139 146
e 139 149
e 140 141
e 140 143
e 140 149
e 141 142
e 141 143
e 141 144
e 141 145
e 141 147
e 141 148
e 142 146
e 142 147
e 142 148
e 142 149
e 143 146
e 143 150
e 144 146
e 144 150
e 145 149
e 145 150
e 146 148
e 146 149
e 147 149
e 148 149
e 148 150
